
Gurobi 11.0.3 (linux64) logging started Fri Nov 22 14:39:06 2024

Set parameter LogFile to value "/home/yihong/Coding/OR_SUC/SUC_results_bigM100000_thread4/case24_ieee_rts_theta0.5_epsilon0.025_gurobi_seed860000_num_gen100_N_WDR100_load_scaling_factor1_exact_T16quadra_cost.txt"
Set parameter TimeLimit to value 3600
Gurobi Optimizer version 11.0.3 build v11.0.3rc0 (linux64 - "Ubuntu 20.04.6 LTS")

CPU model: AMD EPYC 7532 32-Core Processor, instruction set [SSE2|AVX|AVX2]
Thread count: 64 physical cores, 128 logical processors, using up to 4 threads

Optimize a model with 34563 rows, 20041 columns and 474826 nonzeros
Model fingerprint: 0xf10375b1
Model has 1600 quadratic constraints
Variable types: 18341 continuous, 1700 integer (1700 binary)
Coefficient statistics:
  Matrix range     [3e-04, 1e+05]
  QMatrix range    [2e-03, 8e-03]
  QLMatrix range   [9e-02, 6e+01]
  Objective range  [1e+00, 1e+00]
  Bounds range     [1e+00, 1e+00]
  RHS range        [1e+00, 1e+05]
Presolve removed 28054 rows and 8758 columns
Presolve time: 0.15s
Presolved: 6509 rows, 11283 columns, 41698 nonzeros
Presolved model has 1600 quadratic constraint(s)
Variable types: 9640 continuous, 1643 integer (1643 binary)

Root relaxation: objective 4.828031e+04, 5919 iterations, 0.10 seconds (0.13 work units)

    Nodes    |    Current Node    |     Objective Bounds      |     Work
 Expl Unexpl |  Obj  Depth IntInf | Incumbent    BestBd   Gap | It/Node Time

     0     0 48280.3062    0   19          - 48280.3062      -     -    0s
     0     0 281543.438    0  535          - 281543.438      -     -    0s
     0     0 281566.973    0  535          - 281566.973      -     -    0s
     0     0 448412.827    0  541          - 448412.827      -     -    0s
     0     0 448469.829    0  236          - 448469.829      -     -    0s
     0     0 448932.065    0  158          - 448932.065      -     -    0s
     0     0 448932.583    0  157          - 448932.583      -     -    0s
     0     0 449031.244    0  154          - 449031.244      -     -    0s
     0     0 449031.728    0  154          - 449031.728      -     -    1s
     0     0 449031.932    0  154          - 449031.932      -     -    1s
     0     2 449031.932    0  154          - 449031.932      -     -    1s
H  225   618                    449078.55490 449035.028  0.01%   8.0    2s
*  225   618             104    449078.55490 449035.028  0.01%   8.0    2s

Cutting planes:
  Gomory: 16
  Implied bound: 297
  MIR: 76
  Flow cover: 233

Explored 649 nodes (19163 simplex iterations) in 2.88 seconds (3.37 work units)
Thread count was 4 (of 128 available processors)

Solution count 2: 449079 449079 

Optimal solution found (tolerance 1.00e-03)
Warning: max constraint violation (5.6543e-07) exceeds tolerance
Best objective 4.490785548968e+05, best bound 4.490354651633e+05, gap 0.0096%
